c This is a CNF SAT formula in the DIMACS CNF format,
c produced with the bc2cnf translator by Tommi Junttila;
c see http://users.ics.aalto.fi/tjunttil/circuits/index.html
c phi_Gamma <-> 1
c phi_T_feature_det <-> 1
c phi_T_transitions <-> 1
c phi_T_transitions_consistency <-> 1
c phi_T <-> 1
c phi_sim_leaves <-> 1
c phi_sim_transition <-> 1
c phi_sim <-> 1
c FORMULA <-> 1
c pi_2_9 <-> 2
c pi_1_9 <-> 17
c pi_0_9 <-> 40
c pi_2_8 <-> 71
c pi_1_8 <-> 76
c pi_0_8 <-> 89
c pi_2_7 <-> 106
c pi_1_7 <-> 121
c pi_0_7 <-> 144
c pi_2_6 <-> 175
c pi_1_6 <-> 179
c pi_0_6 <-> 192
c pi_2_5 <-> 209
c pi_1_5 <-> 212
c pi_0_5 <-> 225
c pi_2_4 <-> 242
c pi_1_4 <-> 244
c pi_0_4 <-> 260
c pi_2_3 <-> 282
c pi_1_3 <-> 286
c pi_0_3 <-> 302
c pi_2_2 <-> 324
c pi_1_2 <-> 329
c pi_0_2 <-> 345
c pi_2_1 <-> 367
c pi_1_1 <-> 371
c pi_0_1 <-> 384
c pi_2_0 <-> 401
c pi_1_0 <-> 403
c pi_0_0 <-> 416
c alp_approved_0_0 <-> 433
c alp_approved_0_1 <-> 433
c alp_approved_0_2 <-> 433
c alp_approved_1_3 <-> 433
c alp_approved_1_4 <-> 433
c alp_approved_1_5 <-> 433
c alp_approved_0_6 <-> 433
c alp_approved_0_7 <-> 433
c alp_approved_1_8 <-> 433
c alp_approved_1_9 <-> 433
c alp_approved_0_3 <-> 434
c alp_approved_0_4 <-> 434
c alp_approved_0_5 <-> 434
c alp_approved_0_8 <-> 434
c alp_approved_0_9 <-> 434
c approved_P0 <-> 434
c alp_approved_1_0 <-> 435
c alp_approved_1_1 <-> 435
c alp_approved_1_2 <-> 435
c alp_approved_1_6 <-> 435
c alp_approved_1_7 <-> 435
c approved_P100 <-> 435
c tau_2_3_approved_1 <-> 485
c tau_2_3_approved_0 <-> 486
c tau_2_2_approved_1 <-> 487
c tau_2_2_approved_0 <-> 488
c tau_2_1_approved_1 <-> 489
c tau_2_1_approved_0 <-> 490
c tau_2_0_approved_1 <-> 491
c tau_2_0_approved_0 <-> 492
c tau_1_3_approved_1 <-> 530
c tau_1_3_approved_0 <-> 531
c tau_1_3_2 <-> 532
c tau_1_2_approved_1 <-> 533
c tau_1_2_approved_0 <-> 534
c tau_1_2_2 <-> 535
c tau_1_1_approved_1 <-> 536
c tau_1_1_approved_0 <-> 537
c tau_1_1_2 <-> 538
c tau_1_0_approved_1 <-> 539
c tau_1_0_approved_0 <-> 540
c tau_1_0_2 <-> 541
c tau_0_3_approved_1 <-> 604
c tau_0_3_approved_0 <-> 606
c tau_0_3_2 <-> 607
c tau_0_3_1 <-> 608
c tau_0_2_approved_1 <-> 609
c tau_0_2_approved_0 <-> 610
c tau_0_2_2 <-> 611
c tau_0_2_1 <-> 612
c tau_0_1_approved_1 <-> 613
c tau_0_1_approved_0 <-> 614
c tau_0_1_2 <-> 615
c tau_0_1_1 <-> 616
c tau_0_0_approved_1 <-> 617
c tau_0_0_approved_0 <-> 618
c tau_0_0_2 <-> 619
c tau_0_0_1 <-> 620
c lam_2_credit_score <-> 634
c lam_2_dependents <-> 636
c lam_2_monthly_income <-> 638
c lam_2_age <-> 639
c lam_1_credit_score <-> 653
c lam_1_dependents <-> 655
c lam_1_monthly_income <-> 657
c lam_1_age <-> 658
c lam_0_credit_score <-> 672
c lam_0_dependents <-> 674
c lam_0_monthly_income <-> 676
c lam_0_age <-> 677
p wcnf 677 1921 11  
11 1 0
11 2 -3 0
11 2 -6 0
11 -2 6 3 0
11 -3 4 0
11 -3 634 0
11 3 -634 -4 0
11 -4 -487 0
11 -4 5 0
11 4 -5 487 0
11 5 488 0
11 5 -434 0
11 -5 434 -488 0
11 6 -7 0
11 6 -10 0
11 -6 10 7 0
11 -7 8 0
11 -7 636 0
11 7 -636 -8 0
11 -8 -489 0
11 -8 9 0
11 8 -9 489 0
11 9 490 0
11 9 -434 0
11 -9 434 -490 0
11 10 -11 0
11 10 -14 0
11 -10 14 11 0
11 -11 12 0
11 -11 638 0
11 11 -638 -12 0
11 -12 -491 0
11 -12 13 0
11 12 -13 491 0
11 13 492 0
11 13 -434 0
11 -13 434 -492 0
11 -14 15 0
11 -14 639 0
11 14 -639 -15 0
11 -15 -485 0
11 -15 16 0
11 15 -16 485 0
11 16 486 0
11 16 -434 0
11 -16 434 -486 0
11 17 -18 0
11 17 -23 0
11 -17 23 18 0
11 -18 19 0
11 -18 653 0
11 18 -653 -19 0
11 -19 -533 0
11 -19 20 0
11 19 -20 533 0
11 -20 21 0
11 -20 22 0
11 20 -22 -21 0
11 21 534 0
11 21 -434 0
11 -21 434 -534 0
11 22 -2 0
11 22 535 0
11 -22 -535 2 0
11 23 -24 0
11 23 -29 0
11 -23 29 24 0
11 -24 25 0
11 -24 655 0
11 24 -655 -25 0
11 -25 -536 0
11 -25 26 0
11 25 -26 536 0
11 -26 27 0
11 -26 28 0
11 26 -28 -27 0
11 27 537 0
11 27 -434 0
11 -27 434 -537 0
11 28 -2 0
11 28 538 0
11 -28 -538 2 0
11 29 -30 0
11 29 -35 0
11 -29 35 30 0
11 -30 31 0
11 -30 657 0
11 30 -657 -31 0
11 -31 -539 0
11 -31 32 0
11 31 -32 539 0
11 -32 33 0
11 -32 34 0
11 32 -34 -33 0
11 33 540 0
11 33 -434 0
11 -33 434 -540 0
11 34 -2 0
11 34 541 0
11 -34 -541 2 0
11 -35 36 0
11 -35 658 0
11 35 -658 -36 0
11 -36 -530 0
11 -36 37 0
11 36 -37 530 0
11 -37 38 0
11 -37 39 0
11 37 -39 -38 0
11 38 531 0
11 38 -434 0
11 -38 434 -531 0
11 39 -2 0
11 39 532 0
11 -39 -532 2 0
11 40 -41 0
11 40 -48 0
11 -40 48 41 0
1 40 0
11 -41 42 0
11 -41 672 0
11 41 -672 -42 0
11 -42 -609 0
11 -42 43 0
11 42 -43 609 0
11 -43 44 0
11 -43 45 0
11 43 -45 -44 0
11 44 610 0
11 44 -434 0
11 -44 434 -610 0
11 -45 46 0
11 -45 47 0
11 45 -47 -46 0
11 46 -2 0
11 46 611 0
11 -46 -611 2 0
11 47 -17 0
11 47 612 0
11 -47 -612 17 0
11 48 -49 0
11 48 -56 0
11 -48 56 49 0
11 -49 50 0
11 -49 674 0
11 49 -674 -50 0
11 -50 -613 0
11 -50 51 0
11 50 -51 613 0
11 -51 52 0
11 -51 53 0
11 51 -53 -52 0
11 52 614 0
11 52 -434 0
11 -52 434 -614 0
11 -53 54 0
11 -53 55 0
11 53 -55 -54 0
11 54 -2 0
11 54 615 0
11 -54 -615 2 0
11 55 -17 0
11 55 616 0
11 -55 -616 17 0
11 56 -57 0
11 56 -64 0
11 -56 64 57 0
11 -57 58 0
11 -57 676 0
11 57 -676 -58 0
11 -58 -617 0
11 -58 59 0
11 58 -59 617 0
11 -59 60 0
11 -59 61 0
11 59 -61 -60 0
11 60 618 0
11 60 -434 0
11 -60 434 -618 0
11 -61 62 0
11 -61 63 0
11 61 -63 -62 0
11 62 -2 0
11 62 619 0
11 -62 -619 2 0
11 63 -17 0
11 63 620 0
11 -63 -620 17 0
11 -64 65 0
11 -64 677 0
11 64 -677 -65 0
11 -65 -604 0
11 -65 66 0
11 65 -66 604 0
11 -66 67 0
11 -66 68 0
11 66 -68 -67 0
11 67 606 0
11 67 -434 0
11 -67 434 -606 0
11 -68 69 0
11 -68 70 0
11 68 -70 -69 0
11 69 -2 0
11 69 607 0
11 -69 -607 2 0
11 70 -17 0
11 70 608 0
11 -70 -608 17 0
11 71 -72 0
11 71 -73 0
11 -71 73 72 0
11 -72 12 0
11 -72 634 0
11 72 -634 -12 0
11 73 -7 0
11 73 -74 0
11 -73 74 7 0
11 74 -11 0
11 74 -75 0
11 -74 75 11 0
11 -75 8 0
11 -75 639 0
11 75 -639 -8 0
11 76 -77 0
11 76 -78 0
11 -76 78 77 0
11 -77 82 0
11 -77 653 0
11 77 -653 -82 0
11 78 -79 0
11 78 -80 0
11 -78 80 79 0
11 -79 86 0
11 -79 655 0
11 79 -655 -86 0
11 80 -81 0
11 80 -85 0
11 -80 85 81 0
11 -81 82 0
11 -81 657 0
11 81 -657 -82 0
11 -82 -539 0
11 -82 83 0
11 82 -83 539 0
11 -83 33 0
11 -83 84 0
11 83 -84 -33 0
11 84 541 0
11 84 -71 0
11 -84 71 -541 0
11 -85 86 0
11 -85 658 0
11 85 -658 -86 0
11 -86 -536 0
11 -86 87 0
11 86 -87 536 0
11 -87 27 0
11 -87 88 0
11 87 -88 -27 0
11 88 538 0
11 88 -71 0
11 -88 71 -538 0
11 89 -90 0
11 89 -91 0
11 -89 91 90 0
1 89 0
11 -90 95 0
11 -90 672 0
11 90 -672 -95 0
11 91 -92 0
11 91 -93 0
11 -91 93 92 0
11 -92 101 0
11 -92 674 0
11 92 -674 -101 0
11 93 -94 0
11 93 -100 0
11 -93 100 94 0
11 -94 95 0
11 -94 676 0
11 94 -676 -95 0
11 -95 -617 0
11 -95 96 0
11 95 -96 617 0
11 -96 60 0
11 -96 97 0
11 96 -97 -60 0
11 -97 98 0
11 -97 99 0
11 97 -99 -98 0
11 98 619 0
11 98 -71 0
11 -98 71 -619 0
11 99 620 0
11 99 -76 0
11 -99 76 -620 0
11 -100 101 0
11 -100 677 0
11 100 -677 -101 0
11 -101 -613 0
11 -101 102 0
11 101 -102 613 0
11 -102 52 0
11 -102 103 0
11 102 -103 -52 0
11 -103 104 0
11 -103 105 0
11 103 -105 -104 0
11 104 615 0
11 104 -71 0
11 -104 71 -615 0
11 105 616 0
11 105 -76 0
11 -105 76 -616 0
11 106 -107 0
11 106 -110 0
11 -106 110 107 0
11 -107 108 0
11 -107 634 0
11 107 -634 -108 0
11 -108 -488 0
11 -108 109 0
11 108 -109 488 0
11 109 487 0
11 109 -435 0
11 -109 435 -487 0
11 110 -111 0
11 110 -114 0
11 -110 114 111 0
11 -111 112 0
11 -111 636 0
11 111 -636 -112 0
11 -112 -492 0
11 -112 113 0
11 112 -113 492 0
11 113 491 0
11 113 -435 0
11 -113 435 -491 0
11 114 -115 0
11 114 -118 0
11 -114 118 115 0
11 -115 116 0
11 -115 638 0
11 115 -638 -116 0
11 -116 -490 0
11 -116 117 0
11 116 -117 490 0
11 117 489 0
11 117 -435 0
11 -117 435 -489 0
11 -118 119 0
11 -118 639 0
11 118 -639 -119 0
11 -119 -486 0
11 -119 120 0
11 119 -120 486 0
11 120 485 0
11 120 -435 0
11 -120 435 -485 0
11 121 -122 0
11 121 -127 0
11 -121 127 122 0
11 -122 123 0
11 -122 653 0
11 122 -653 -123 0
11 -123 124 0
11 -123 125 0
11 123 -125 -124 0
11 124 533 0
11 124 -435 0
11 -124 435 -533 0
11 -125 -534 0
11 -125 126 0
11 125 -126 534 0
11 126 535 0
11 126 -106 0
11 -126 106 -535 0
11 127 -128 0
11 127 -133 0
11 -127 133 128 0
11 -128 129 0
11 -128 655 0
11 128 -655 -129 0
11 -129 130 0
11 -129 131 0
11 129 -131 -130 0
11 130 539 0
11 130 -435 0
11 -130 435 -539 0
11 -131 -540 0
11 -131 132 0
11 131 -132 540 0
11 132 541 0
11 132 -106 0
11 -132 106 -541 0
11 133 -134 0
11 133 -139 0
11 -133 139 134 0
11 -134 135 0
11 -134 657 0
11 134 -657 -135 0
11 -135 136 0
11 -135 137 0
11 135 -137 -136 0
11 136 536 0
11 136 -435 0
11 -136 435 -536 0
11 -137 -537 0
11 -137 138 0
11 137 -138 537 0
11 138 538 0
11 138 -106 0
11 -138 106 -538 0
11 -139 140 0
11 -139 658 0
11 139 -658 -140 0
11 -140 141 0
11 -140 142 0
11 140 -142 -141 0
11 141 530 0
11 141 -435 0
11 -141 435 -530 0
11 -142 -531 0
11 -142 143 0
11 142 -143 531 0
11 143 532 0
11 143 -106 0
11 -143 106 -532 0
11 144 -145 0
11 144 -152 0
11 -144 152 145 0
1 144 0
11 -145 146 0
11 -145 672 0
11 145 -672 -146 0
11 -146 147 0
11 -146 148 0
11 146 -148 -147 0
11 147 609 0
11 147 -435 0
11 -147 435 -609 0
11 -148 -610 0
11 -148 149 0
11 148 -149 610 0
11 -149 150 0
11 -149 151 0
11 149 -151 -150 0
11 150 611 0
11 150 -106 0
11 -150 106 -611 0
11 151 612 0
11 151 -121 0
11 -151 121 -612 0
11 152 -153 0
11 152 -160 0
11 -152 160 153 0
11 -153 154 0
11 -153 674 0
11 153 -674 -154 0
11 -154 155 0
11 -154 156 0
11 154 -156 -155 0
11 155 617 0
11 155 -435 0
11 -155 435 -617 0
11 -156 -618 0
11 -156 157 0
11 156 -157 618 0
11 -157 158 0
11 -157 159 0
11 157 -159 -158 0
11 158 619 0
11 158 -106 0
11 -158 106 -619 0
11 159 620 0
11 159 -121 0
11 -159 121 -620 0
11 160 -161 0
11 160 -168 0
11 -160 168 161 0
11 -161 162 0
11 -161 676 0
11 161 -676 -162 0
11 -162 163 0
11 -162 164 0
11 162 -164 -163 0
11 163 613 0
11 163 -435 0
11 -163 435 -613 0
11 -164 -614 0
11 -164 165 0
11 164 -165 614 0
11 -165 166 0
11 -165 167 0
11 165 -167 -166 0
11 166 615 0
11 166 -106 0
11 -166 106 -615 0
11 167 616 0
11 167 -121 0
11 -167 121 -616 0
11 -168 169 0
11 -168 677 0
11 168 -677 -169 0
11 -169 170 0
11 -169 171 0
11 169 -171 -170 0
11 170 604 0
11 170 -435 0
11 -170 435 -604 0
11 -171 -606 0
11 -171 172 0
11 171 -172 606 0
11 -172 173 0
11 -172 174 0
11 172 -174 -173 0
11 173 607 0
11 173 -106 0
11 -173 106 -607 0
11 174 608 0
11 174 -121 0
11 -174 121 -608 0
11 175 -176 0
11 175 -177 0
11 -175 177 176 0
11 -176 116 0
11 -176 634 0
11 176 -634 -116 0
11 177 -114 0
11 177 -178 0
11 -177 178 114 0
11 -178 116 0
11 -178 636 0
11 178 -636 -116 0
11 179 -180 0
11 179 -181 0
11 -179 181 180 0
11 -180 185 0
11 -180 653 0
11 180 -653 -185 0
11 181 -182 0
11 181 -183 0
11 -181 183 182 0
11 -182 185 0
11 -182 655 0
11 182 -655 -185 0
11 183 -184 0
11 183 -188 0
11 -183 188 184 0
11 -184 185 0
11 -184 657 0
11 184 -657 -185 0
11 -185 136 0
11 -185 186 0
11 185 -186 -136 0
11 -186 -537 0
11 -186 187 0
11 186 -187 537 0
11 187 538 0
11 187 -175 0
11 -187 175 -538 0
11 -188 189 0
11 -188 658 0
11 188 -658 -189 0
11 -189 141 0
11 -189 190 0
11 189 -190 -141 0
11 -190 -531 0
11 -190 191 0
11 190 -191 531 0
11 191 532 0
11 191 -175 0
11 -191 175 -532 0
11 192 -193 0
11 192 -194 0
11 -192 194 193 0
1 192 0
11 -193 198 0
11 -193 672 0
11 193 -672 -198 0
11 194 -195 0
11 194 -196 0
11 -194 196 195 0
11 -195 198 0
11 -195 674 0
11 195 -674 -198 0
11 196 -197 0
11 196 -203 0
11 -196 203 197 0
11 -197 198 0
11 -197 676 0
11 197 -676 -198 0
11 -198 163 0
11 -198 199 0
11 198 -199 -163 0
11 -199 -614 0
11 -199 200 0
11 199 -200 614 0
11 -200 201 0
11 -200 202 0
11 200 -202 -201 0
11 201 615 0
11 201 -175 0
11 -201 175 -615 0
11 202 616 0
11 202 -179 0
11 -202 179 -616 0
11 -203 204 0
11 -203 677 0
11 203 -677 -204 0
11 -204 170 0
11 -204 205 0
11 204 -205 -170 0
11 -205 -606 0
11 -205 206 0
11 205 -206 606 0
11 -206 207 0
11 -206 208 0
11 206 -208 -207 0
11 207 607 0
11 207 -175 0
11 -207 175 -607 0
11 208 608 0
11 208 -179 0
11 -208 179 -608 0
11 209 -72 0
11 209 -210 0
11 -209 210 72 0
11 210 -10 0
11 210 -211 0
11 -210 211 10 0
11 -211 12 0
11 -211 636 0
11 211 -636 -12 0
11 212 -213 0
11 212 -214 0
11 -212 214 213 0
11 -213 218 0
11 -213 653 0
11 213 -653 -218 0
11 214 -215 0
11 214 -216 0
11 -214 216 215 0
11 -215 218 0
11 -215 655 0
11 215 -655 -218 0
11 216 -217 0
11 216 -221 0
11 -216 221 217 0
11 -217 218 0
11 -217 657 0
11 217 -657 -218 0
11 -218 -539 0
11 -218 219 0
11 218 -219 539 0
11 -219 33 0
11 -219 220 0
11 219 -220 -33 0
11 220 541 0
11 220 -209 0
11 -220 209 -541 0
11 -221 222 0
11 -221 658 0
11 221 -658 -222 0
11 -222 -530 0
11 -222 223 0
11 222 -223 530 0
11 -223 38 0
11 -223 224 0
11 223 -224 -38 0
11 224 532 0
11 224 -209 0
11 -224 209 -532 0
11 225 -226 0
11 225 -227 0
11 -225 227 226 0
1 225 0
11 -226 231 0
11 -226 672 0
11 226 -672 -231 0
11 227 -228 0
11 227 -229 0
11 -227 229 228 0
11 -228 231 0
11 -228 674 0
11 228 -674 -231 0
11 229 -230 0
11 229 -236 0
11 -229 236 230 0
11 -230 231 0
11 -230 676 0
11 230 -676 -231 0
11 -231 -617 0
11 -231 232 0
11 231 -232 617 0
11 -232 60 0
11 -232 233 0
11 232 -233 -60 0
11 -233 234 0
11 -233 235 0
11 233 -235 -234 0
11 234 619 0
11 234 -209 0
11 -234 209 -619 0
11 235 620 0
11 235 -212 0
11 -235 212 -620 0
11 -236 237 0
11 -236 677 0
11 236 -677 -237 0
11 -237 -604 0
11 -237 238 0
11 237 -238 604 0
11 -238 67 0
11 -238 239 0
11 238 -239 -67 0
11 -239 240 0
11 -239 241 0
11 239 -241 -240 0
11 240 607 0
11 240 -209 0
11 -240 209 -607 0
11 241 608 0
11 241 -212 0
11 -241 212 -608 0
11 242 -3 0
11 242 -243 0
11 -242 243 3 0
11 243 -74 0
11 243 -211 0
11 -243 211 74 0
11 244 -245 0
11 244 -249 0
11 -244 249 245 0
11 -245 246 0
11 -245 653 0
11 245 -653 -246 0
11 -246 -533 0
11 -246 247 0
11 246 -247 533 0
11 -247 21 0
11 -247 248 0
11 247 -248 -21 0
11 248 535 0
11 248 -242 0
11 -248 242 -535 0
11 249 -250 0
11 249 -251 0
11 -249 251 250 0
11 -250 253 0
11 -250 655 0
11 250 -655 -253 0
11 251 -252 0
11 251 -256 0
11 -251 256 252 0
11 -252 253 0
11 -252 657 0
11 252 -657 -253 0
11 -253 -539 0
11 -253 254 0
11 253 -254 539 0
11 -254 33 0
11 -254 255 0
11 254 -255 -33 0
11 255 541 0
11 255 -242 0
11 -255 242 -541 0
11 -256 257 0
11 -256 658 0
11 256 -658 -257 0
11 -257 -536 0
11 -257 258 0
11 257 -258 536 0
11 -258 27 0
11 -258 259 0
11 258 -259 -27 0
11 259 538 0
11 259 -242 0
11 -259 242 -538 0
11 260 -261 0
11 260 -267 0
11 -260 267 261 0
1 260 0
11 -261 262 0
11 -261 672 0
11 261 -672 -262 0
11 -262 -609 0
11 -262 263 0
11 262 -263 609 0
11 -263 44 0
11 -263 264 0
11 263 -264 -44 0
11 -264 265 0
11 -264 266 0
11 264 -266 -265 0
11 265 611 0
11 265 -242 0
11 -265 242 -611 0
11 266 612 0
11 266 -244 0
11 -266 244 -612 0
11 267 -268 0
11 267 -269 0
11 -267 269 268 0
11 -268 271 0
11 -268 674 0
11 268 -674 -271 0
11 269 -270 0
11 269 -276 0
11 -269 276 270 0
11 -270 271 0
11 -270 676 0
11 270 -676 -271 0
11 -271 -617 0
11 -271 272 0
11 271 -272 617 0
11 -272 60 0
11 -272 273 0
11 272 -273 -60 0
11 -273 274 0
11 -273 275 0
11 273 -275 -274 0
11 274 619 0
11 274 -242 0
11 -274 242 -619 0
11 275 620 0
11 275 -244 0
11 -275 244 -620 0
11 -276 277 0
11 -276 677 0
11 276 -677 -277 0
11 -277 -613 0
11 -277 278 0
11 277 -278 613 0
11 -278 52 0
11 -278 279 0
11 278 -279 -52 0
11 -279 280 0
11 -279 281 0
11 279 -281 -280 0
11 280 615 0
11 280 -242 0
11 -280 242 -615 0
11 281 616 0
11 281 -244 0
11 -281 244 -616 0
11 282 -3 0
11 282 -283 0
11 -282 283 3 0
11 283 -7 0
11 283 -284 0
11 -283 284 7 0
11 284 -11 0
11 284 -285 0
11 -284 285 11 0
11 -285 4 0
11 -285 639 0
11 285 -639 -4 0
11 286 -287 0
11 286 -288 0
11 -286 288 287 0
11 -287 299 0
11 -287 653 0
11 287 -653 -299 0
11 288 -289 0
11 288 -293 0
11 -288 293 289 0
11 -289 290 0
11 -289 655 0
11 289 -655 -290 0
11 -290 -536 0
11 -290 291 0
11 290 -291 536 0
11 -291 27 0
11 -291 292 0
11 291 -292 -27 0
11 292 538 0
11 292 -282 0
11 -292 282 -538 0
11 293 -294 0
11 293 -298 0
11 -293 298 294 0
11 -294 295 0
11 -294 657 0
11 294 -657 -295 0
11 -295 -539 0
11 -295 296 0
11 295 -296 539 0
11 -296 33 0
11 -296 297 0
11 296 -297 -33 0
11 297 541 0
11 297 -282 0
11 -297 282 -541 0
11 -298 299 0
11 -298 658 0
11 298 -658 -299 0
11 -299 -533 0
11 -299 300 0
11 299 -300 533 0
11 -300 21 0
11 -300 301 0
11 300 -301 -21 0
11 301 535 0
11 301 -282 0
11 -301 282 -535 0
11 302 -303 0
11 302 -304 0
11 -302 304 303 0
1 302 0
11 -303 319 0
11 -303 672 0
11 303 -672 -319 0
11 304 -305 0
11 304 -311 0
11 -304 311 305 0
11 -305 306 0
11 -305 674 0
11 305 -674 -306 0
11 -306 -613 0
11 -306 307 0
11 306 -307 613 0
11 -307 52 0
11 -307 308 0
11 307 -308 -52 0
11 -308 309 0
11 -308 310 0
11 308 -310 -309 0
11 309 615 0
11 309 -282 0
11 -309 282 -615 0
11 310 616 0
11 310 -286 0
11 -310 286 -616 0
11 311 -312 0
11 311 -318 0
11 -311 318 312 0
11 -312 313 0
11 -312 676 0
11 312 -676 -313 0
11 -313 -617 0
11 -313 314 0
11 313 -314 617 0
11 -314 60 0
11 -314 315 0
11 314 -315 -60 0
11 -315 316 0
11 -315 317 0
11 315 -317 -316 0
11 316 619 0
11 316 -282 0
11 -316 282 -619 0
11 317 620 0
11 317 -286 0
11 -317 286 -620 0
11 -318 319 0
11 -318 677 0
11 318 -677 -319 0
11 -319 -609 0
11 -319 320 0
11 319 -320 609 0
11 -320 44 0
11 -320 321 0
11 320 -321 -44 0
11 -321 322 0
11 -321 323 0
11 321 -323 -322 0
11 322 611 0
11 322 -282 0
11 -322 282 -611 0
11 323 612 0
11 323 -286 0
11 -323 286 -612 0
11 324 -325 0
11 324 -326 0
11 -324 326 325 0
11 -325 112 0
11 -325 634 0
11 325 -634 -112 0
11 326 -178 0
11 326 -327 0
11 -326 327 178 0
11 327 -118 0
11 327 -328 0
11 -327 328 118 0
11 -328 112 0
11 -328 638 0
11 328 -638 -112 0
11 329 -330 0
11 329 -331 0
11 -329 331 330 0
11 -330 338 0
11 -330 653 0
11 330 -653 -338 0
11 331 -332 0
11 331 -336 0
11 -331 336 332 0
11 -332 333 0
11 -332 655 0
11 332 -655 -333 0
11 -333 136 0
11 -333 334 0
11 333 -334 -136 0
11 -334 -537 0
11 -334 335 0
11 334 -335 537 0
11 335 538 0
11 335 -324 0
11 -335 324 -538 0
11 336 -337 0
11 336 -341 0
11 -336 341 337 0
11 -337 338 0
11 -337 657 0
11 337 -657 -338 0
11 -338 130 0
11 -338 339 0
11 338 -339 -130 0
11 -339 -540 0
11 -339 340 0
11 339 -340 540 0
11 340 541 0
11 340 -324 0
11 -340 324 -541 0
11 -341 342 0
11 -341 658 0
11 341 -658 -342 0
11 -342 141 0
11 -342 343 0
11 342 -343 -141 0
11 -343 -531 0
11 -343 344 0
11 343 -344 531 0
11 344 532 0
11 344 -324 0
11 -344 324 -532 0
11 345 -346 0
11 345 -347 0
11 -345 347 346 0
1 345 0
11 -346 356 0
11 -346 672 0
11 346 -672 -356 0
11 347 -348 0
11 347 -354 0
11 -347 354 348 0
11 -348 349 0
11 -348 674 0
11 348 -674 -349 0
11 -349 163 0
11 -349 350 0
11 349 -350 -163 0
11 -350 -614 0
11 -350 351 0
11 350 -351 614 0
11 -351 352 0
11 -351 353 0
11 351 -353 -352 0
11 352 615 0
11 352 -324 0
11 -352 324 -615 0
11 353 616 0
11 353 -329 0
11 -353 329 -616 0
11 354 -355 0
11 354 -361 0
11 -354 361 355 0
11 -355 356 0
11 -355 676 0
11 355 -676 -356 0
11 -356 155 0
11 -356 357 0
11 356 -357 -155 0
11 -357 -618 0
11 -357 358 0
11 357 -358 618 0
11 -358 359 0
11 -358 360 0
11 358 -360 -359 0
11 359 619 0
11 359 -324 0
11 -359 324 -619 0
11 360 620 0
11 360 -329 0
11 -360 329 -620 0
11 -361 362 0
11 -361 677 0
11 361 -677 -362 0
11 -362 170 0
11 -362 363 0
11 362 -363 -170 0
11 -363 -606 0
11 -363 364 0
11 363 -364 606 0
11 -364 365 0
11 -364 366 0
11 364 -366 -365 0
11 365 607 0
11 365 -324 0
11 -365 324 -607 0
11 366 608 0
11 366 -329 0
11 -366 329 -608 0
11 367 -107 0
11 367 -368 0
11 -367 368 107 0
11 368 -178 0
11 368 -369 0
11 -368 369 178 0
11 369 -115 0
11 369 -370 0
11 -369 370 115 0
11 -370 116 0
11 -370 639 0
11 370 -639 -116 0
11 371 -372 0
11 371 -376 0
11 -371 376 372 0
11 -372 373 0
11 -372 653 0
11 372 -653 -373 0
11 -373 124 0
11 -373 374 0
11 373 -374 -124 0
11 -374 -534 0
11 -374 375 0
11 374 -375 534 0
11 375 535 0
11 375 -367 0
11 -375 367 -535 0
11 376 -377 0
11 376 -378 0
11 -376 378 377 0
11 -377 381 0
11 -377 655 0
11 377 -655 -381 0
11 378 -379 0
11 378 -380 0
11 -378 380 379 0
11 -379 381 0
11 -379 657 0
11 379 -657 -381 0
11 -380 381 0
11 -380 658 0
11 380 -658 -381 0
11 -381 136 0
11 -381 382 0
11 381 -382 -136 0
11 -382 -537 0
11 -382 383 0
11 382 -383 537 0
11 383 538 0
11 383 -367 0
11 -383 367 -538 0
11 384 -385 0
11 384 -391 0
11 -384 391 385 0
1 384 0
11 -385 386 0
11 -385 672 0
11 385 -672 -386 0
11 -386 147 0
11 -386 387 0
11 386 -387 -147 0
11 -387 -610 0
11 -387 388 0
11 387 -388 610 0
11 -388 389 0
11 -388 390 0
11 388 -390 -389 0
11 389 611 0
11 389 -367 0
11 -389 367 -611 0
11 390 612 0
11 390 -371 0
11 -390 371 -612 0
11 391 -392 0
11 391 -393 0
11 -391 393 392 0
11 -392 396 0
11 -392 674 0
11 392 -674 -396 0
11 393 -394 0
11 393 -395 0
11 -393 395 394 0
11 -394 396 0
11 -394 676 0
11 394 -676 -396 0
11 -395 396 0
11 -395 677 0
11 395 -677 -396 0
11 -396 163 0
11 -396 397 0
11 396 -397 -163 0
11 -397 -614 0
11 -397 398 0
11 397 -398 614 0
11 -398 399 0
11 -398 400 0
11 398 -400 -399 0
11 399 615 0
11 399 -367 0
11 -399 367 -615 0
11 400 616 0
11 400 -371 0
11 -400 371 -616 0
11 401 -176 0
11 401 -402 0
11 -401 402 176 0
11 402 -111 0
11 402 -369 0
11 -402 369 111 0
11 403 -404 0
11 403 -405 0
11 -403 405 404 0
11 -404 413 0
11 -404 653 0
11 404 -653 -413 0
11 405 -406 0
11 405 -410 0
11 -405 410 406 0
11 -406 407 0
11 -406 655 0
11 406 -655 -407 0
11 -407 130 0
11 -407 408 0
11 407 -408 -130 0
11 -408 -540 0
11 -408 409 0
11 408 -409 540 0
11 409 541 0
11 409 -401 0
11 -409 401 -541 0
11 410 -411 0
11 410 -412 0
11 -410 412 411 0
11 -411 413 0
11 -411 657 0
11 411 -657 -413 0
11 -412 413 0
11 -412 658 0
11 412 -658 -413 0
11 -413 136 0
11 -413 414 0
11 413 -414 -136 0
11 -414 -537 0
11 -414 415 0
11 414 -415 537 0
11 415 538 0
11 415 -401 0
11 -415 401 -538 0
11 416 -417 0
11 416 -418 0
11 -416 418 417 0
1 416 0
11 -417 428 0
11 -417 672 0
11 417 -672 -428 0
11 418 -419 0
11 418 -425 0
11 -418 425 419 0
11 -419 420 0
11 -419 674 0
11 419 -674 -420 0
11 -420 155 0
11 -420 421 0
11 420 -421 -155 0
11 -421 -618 0
11 -421 422 0
11 421 -422 618 0
11 -422 423 0
11 -422 424 0
11 422 -424 -423 0
11 423 619 0
11 423 -401 0
11 -423 401 -619 0
11 424 620 0
11 424 -403 0
11 -424 403 -620 0
11 425 -426 0
11 425 -427 0
11 -425 427 426 0
11 -426 428 0
11 -426 676 0
11 426 -676 -428 0
11 -427 428 0
11 -427 677 0
11 427 -677 -428 0
11 -428 163 0
11 -428 429 0
11 428 -429 -163 0
11 -429 -614 0
11 -429 430 0
11 429 -430 614 0
11 -430 431 0
11 -430 432 0
11 430 -432 -431 0
11 431 615 0
11 431 -401 0
11 -431 401 -615 0
11 432 616 0
11 432 -403 0
11 -432 403 -616 0
11 -433 0
11 436 634 0
11 436 -437 0
11 -436 437 -634 0
11 436 0
11 -437 -485 0
11 -437 -486 0
11 437 486 485 0
11 438 636 0
11 438 -439 0
11 -438 439 -636 0
11 438 0
11 -439 -485 0
11 -439 440 0
11 439 -440 485 0
11 -440 -486 0
11 -440 441 0
11 440 -441 486 0
11 -441 -487 0
11 -441 -488 0
11 441 488 487 0
11 442 -439 0
11 442 638 0
11 -442 -638 439 0
11 442 0
11 443 653 0
11 443 -444 0
11 -443 444 -653 0
11 443 0
11 -444 -530 0
11 -444 445 0
11 444 -445 530 0
11 -445 -531 0
11 -445 -532 0
11 445 532 531 0
11 446 655 0
11 446 -447 0
11 -446 447 -655 0
11 446 0
11 -447 -530 0
11 -447 448 0
11 447 -448 530 0
11 -448 -531 0
11 -448 449 0
11 448 -449 531 0
11 -449 -532 0
11 -449 450 0
11 449 -450 532 0
11 -450 -533 0
11 -450 451 0
11 450 -451 533 0
11 -451 -534 0
11 -451 -535 0
11 451 535 534 0
11 452 -447 0
11 452 657 0
11 -452 -657 447 0
11 452 0
11 453 672 0
11 453 -454 0
11 -453 454 -672 0
11 453 0
11 -454 -604 0
11 -454 455 0
11 454 -455 604 0
11 -455 -606 0
11 -455 456 0
11 455 -456 606 0
11 -456 -607 0
11 -456 -608 0
11 456 608 607 0
11 457 674 0
11 457 -458 0
11 -457 458 -674 0
11 457 0
11 -458 -604 0
11 -458 459 0
11 458 -459 604 0
11 -459 -606 0
11 -459 460 0
11 459 -460 606 0
11 -460 -607 0
11 -460 461 0
11 460 -461 607 0
11 -461 -608 0
11 -461 462 0
11 461 -462 608 0
11 -462 -609 0
11 -462 463 0
11 462 -463 609 0
11 -463 -610 0
11 -463 464 0
11 463 -464 610 0
11 -464 -611 0
11 -464 -612 0
11 464 612 611 0
11 465 -458 0
11 465 676 0
11 -465 -676 458 0
11 465 0
11 466 634 0
11 466 -467 0
11 -466 467 -634 0
11 466 0
11 -467 468 0
11 -467 471 0
11 467 -471 -468 0
11 468 -469 0
11 468 -470 0
11 -468 470 469 0
11 -469 -488 0
11 -469 487 0
11 469 -487 488 0
11 -470 -487 0
11 -470 488 0
11 470 -488 487 0
11 -471 472 0
11 -471 475 0
11 471 -475 -472 0
11 472 -473 0
11 472 -474 0
11 -472 474 473 0
11 -473 -490 0
11 -473 489 0
11 473 -489 490 0
11 -474 -489 0
11 -474 490 0
11 474 -490 489 0
11 475 -476 0
11 475 -477 0
11 -475 477 476 0
11 -476 -492 0
11 -476 491 0
11 476 -491 492 0
11 -477 -491 0
11 -477 492 0
11 477 -492 491 0
11 478 636 0
11 478 -471 0
11 -478 471 -636 0
11 478 0
11 479 638 0
11 479 -471 0
11 -479 471 -638 0
11 479 0
11 480 639 0
11 480 -481 0
11 -480 481 -639 0
11 480 0
11 -481 467 0
11 -481 482 0
11 481 -482 -467 0
11 482 -483 0
11 482 -484 0
11 -482 484 483 0
11 -483 -486 0
11 -483 485 0
11 483 -485 486 0
11 -484 -485 0
11 -484 486 0
11 484 -486 485 0
11 493 653 0
11 493 -494 0
11 -493 494 -653 0
11 493 0
11 -494 495 0
11 -494 502 0
11 494 -502 -495 0
11 495 -496 0
11 495 -500 0
11 -495 500 496 0
11 496 -497 0
11 496 -498 0
11 -496 498 497 0
11 -497 451 0
11 -497 533 0
11 497 -533 -451 0
11 -498 499 0
11 -498 534 0
11 498 -534 -499 0
11 -499 -533 0
11 -499 -535 0
11 499 535 533 0
11 -500 501 0
11 -500 535 0
11 500 -535 -501 0
11 -501 -533 0
11 -501 -534 0
11 501 534 533 0
11 -502 503 0
11 -502 511 0
11 502 -511 -503 0
11 503 -504 0
11 503 -509 0
11 -503 509 504 0
11 504 -505 0
11 504 -507 0
11 -504 507 505 0
11 -505 506 0
11 -505 536 0
11 505 -536 -506 0
11 -506 -537 0
11 -506 -538 0
11 506 538 537 0
11 -507 508 0
11 -507 537 0
11 507 -537 -508 0
11 -508 -536 0
11 -508 -538 0
11 508 538 536 0
11 -509 510 0
11 -509 538 0
11 509 -538 -510 0
11 -510 -536 0
11 -510 -537 0
11 510 537 536 0
11 511 -512 0
11 511 -517 0
11 -511 517 512 0
11 512 -513 0
11 512 -515 0
11 -512 515 513 0
11 -513 514 0
11 -513 539 0
11 513 -539 -514 0
11 -514 -540 0
11 -514 -541 0
11 514 541 540 0
11 -515 516 0
11 -515 540 0
11 515 -540 -516 0
11 -516 -539 0
11 -516 -541 0
11 516 541 539 0
11 -517 518 0
11 -517 541 0
11 517 -541 -518 0
11 -518 -539 0
11 -518 -540 0
11 518 540 539 0
11 519 655 0
11 519 -502 0
11 -519 502 -655 0
11 519 0
11 520 657 0
11 520 -502 0
11 -520 502 -657 0
11 520 0
11 521 658 0
11 521 -522 0
11 -521 522 -658 0
11 521 0
11 -522 494 0
11 -522 523 0
11 522 -523 -494 0
11 523 -524 0
11 523 -528 0
11 -523 528 524 0
11 524 -525 0
11 524 -526 0
11 -524 526 525 0
11 -525 445 0
11 -525 530 0
11 525 -530 -445 0
11 -526 527 0
11 -526 531 0
11 526 -531 -527 0
11 -527 -530 0
11 -527 -532 0
11 527 532 530 0
11 -528 529 0
11 -528 532 0
11 528 -532 -529 0
11 -529 -530 0
11 -529 -531 0
11 529 531 530 0
11 542 672 0
11 542 -543 0
11 -542 543 -672 0
11 542 0
11 -543 544 0
11 -543 558 0
11 543 -558 -544 0
11 544 -545 0
11 544 -551 0
11 -544 551 545 0
11 545 -546 0
11 545 -548 0
11 -545 548 546 0
11 -546 547 0
11 -546 609 0
11 546 -609 -547 0
11 -547 -611 0
11 -547 554 0
11 547 -554 611 0
11 -548 549 0
11 -548 610 0
11 548 -610 -549 0
11 -549 -611 0
11 -549 550 0
11 549 -550 611 0
11 -550 -609 0
11 -550 -612 0
11 550 612 609 0
11 551 -552 0
11 551 -555 0
11 -551 555 552 0
11 -552 553 0
11 -552 611 0
11 552 -611 -553 0
11 -553 -609 0
11 -553 554 0
11 553 -554 609 0
11 -554 -610 0
11 -554 -612 0
11 554 612 610 0
11 -555 556 0
11 -555 612 0
11 555 -612 -556 0
11 -556 -609 0
11 -556 557 0
11 556 -557 609 0
11 -557 -610 0
11 -557 -611 0
11 557 611 610 0
11 -558 559 0
11 -558 573 0
11 558 -573 -559 0
11 559 -560 0
11 559 -566 0
11 -559 566 560 0
11 560 -561 0
11 560 -563 0
11 -560 563 561 0
11 -561 562 0
11 -561 613 0
11 561 -613 -562 0
11 -562 -615 0
11 -562 569 0
11 562 -569 615 0
11 -563 564 0
11 -563 614 0
11 563 -614 -564 0
11 -564 -615 0
11 -564 565 0
11 564 -565 615 0
11 -565 -613 0
11 -565 -616 0
11 565 616 613 0
11 566 -567 0
11 566 -570 0
11 -566 570 567 0
11 -567 568 0
11 -567 615 0
11 567 -615 -568 0
11 -568 -613 0
11 -568 569 0
11 568 -569 613 0
11 -569 -614 0
11 -569 -616 0
11 569 616 614 0
11 -570 571 0
11 -570 616 0
11 570 -616 -571 0
11 -571 -613 0
11 -571 572 0
11 571 -572 613 0
11 -572 -614 0
11 -572 -615 0
11 572 615 614 0
11 573 -574 0
11 573 -580 0
11 -573 580 574 0
11 574 -575 0
11 574 -577 0
11 -574 577 575 0
11 -575 576 0
11 -575 617 0
11 575 -617 -576 0
11 -576 -619 0
11 -576 583 0
11 576 -583 619 0
11 -577 578 0
11 -577 618 0
11 577 -618 -578 0
11 -578 -619 0
11 -578 579 0
11 578 -579 619 0
11 -579 -617 0
11 -579 -620 0
11 579 620 617 0
11 580 -581 0
11 580 -584 0
11 -580 584 581 0
11 -581 582 0
11 -581 619 0
11 581 -619 -582 0
11 -582 -617 0
11 -582 583 0
11 582 -583 617 0
11 -583 -618 0
11 -583 -620 0
11 583 620 618 0
11 -584 585 0
11 -584 620 0
11 584 -620 -585 0
11 -585 -617 0
11 -585 586 0
11 585 -586 617 0
11 -586 -618 0
11 -586 -619 0
11 586 619 618 0
11 587 674 0
11 587 -558 0
11 -587 558 -674 0
11 587 0
11 588 676 0
11 588 -558 0
11 -588 558 -676 0
11 588 0
11 589 677 0
11 589 -590 0
11 -589 590 -677 0
11 589 0
11 -590 543 0
11 -590 591 0
11 590 -591 -543 0
11 591 -592 0
11 591 -598 0
11 -591 598 592 0
11 592 -593 0
11 592 -595 0
11 -592 595 593 0
11 -593 594 0
11 -593 604 0
11 593 -604 -594 0
11 -594 -607 0
11 -594 601 0
11 594 -601 607 0
11 -595 596 0
11 -595 606 0
11 595 -606 -596 0
11 -596 -607 0
11 -596 597 0
11 596 -597 607 0
11 -597 -604 0
11 -597 -608 0
11 597 608 604 0
11 598 -599 0
11 598 -602 0
11 -598 602 599 0
11 -599 600 0
11 -599 607 0
11 599 -607 -600 0
11 -600 -604 0
11 -600 601 0
11 600 -601 604 0
11 -601 -606 0
11 -601 -608 0
11 601 608 606 0
11 -602 603 0
11 -602 608 0
11 602 -608 -603 0
11 -603 -604 0
11 -603 605 0
11 603 -605 604 0
11 -605 -606 0
11 -605 -607 0
11 605 607 606 0
11 621 -622 0
11 621 -625 0
11 -621 625 622 0
11 621 0
11 -622 -636 0
11 -622 623 0
11 622 -623 636 0
11 -623 -638 0
11 -623 624 0
11 623 -624 638 0
11 -624 -639 0
11 -624 634 0
11 624 -634 639 0
11 625 -626 0
11 625 -629 0
11 -625 629 626 0
11 -626 -634 0
11 -626 627 0
11 626 -627 634 0
11 -627 -638 0
11 -627 628 0
11 627 -628 638 0
11 -628 -639 0
11 -628 636 0
11 628 -636 639 0
11 629 -630 0
11 629 -633 0
11 -629 633 630 0
11 -630 -634 0
11 -630 631 0
11 630 -631 634 0
11 -631 -636 0
11 -631 632 0
11 631 -632 636 0
11 -632 -639 0
11 -632 638 0
11 632 -638 639 0
11 -633 -634 0
11 -633 635 0
11 633 -635 634 0
11 -635 -636 0
11 -635 637 0
11 635 -637 636 0
11 -637 -638 0
11 -637 639 0
11 637 -639 638 0
11 640 -641 0
11 640 -644 0
11 -640 644 641 0
11 640 0
11 -641 -655 0
11 -641 642 0
11 641 -642 655 0
11 -642 -657 0
11 -642 643 0
11 642 -643 657 0
11 -643 -658 0
11 -643 653 0
11 643 -653 658 0
11 644 -645 0
11 644 -648 0
11 -644 648 645 0
11 -645 -653 0
11 -645 646 0
11 645 -646 653 0
11 -646 -657 0
11 -646 647 0
11 646 -647 657 0
11 -647 -658 0
11 -647 655 0
11 647 -655 658 0
11 648 -649 0
11 648 -652 0
11 -648 652 649 0
11 -649 -653 0
11 -649 650 0
11 649 -650 653 0
11 -650 -655 0
11 -650 651 0
11 650 -651 655 0
11 -651 -658 0
11 -651 657 0
11 651 -657 658 0
11 -652 -653 0
11 -652 654 0
11 652 -654 653 0
11 -654 -655 0
11 -654 656 0
11 654 -656 655 0
11 -656 -657 0
11 -656 658 0
11 656 -658 657 0
11 659 -660 0
11 659 -663 0
11 -659 663 660 0
11 659 0
11 -660 -674 0
11 -660 661 0
11 660 -661 674 0
11 -661 -676 0
11 -661 662 0
11 661 -662 676 0
11 -662 -677 0
11 -662 672 0
11 662 -672 677 0
11 663 -664 0
11 663 -667 0
11 -663 667 664 0
11 -664 -672 0
11 -664 665 0
11 664 -665 672 0
11 -665 -676 0
11 -665 666 0
11 665 -666 676 0
11 -666 -677 0
11 -666 674 0
11 666 -674 677 0
11 667 -668 0
11 667 -671 0
11 -667 671 668 0
11 -668 -672 0
11 -668 669 0
11 668 -669 672 0
11 -669 -674 0
11 -669 670 0
11 669 -670 674 0
11 -670 -677 0
11 -670 676 0
11 670 -676 677 0
11 -671 -672 0
11 -671 673 0
11 671 -673 672 0
11 -673 -674 0
11 -673 675 0
11 673 -675 674 0
11 -675 -676 0
11 -675 677 0
11 675 -677 676 0
